knapPI_6_1000_1000_125
n 1000
c 104822
z 104822
time 0.1
1,856,856,1
2,839,839,1
3,252,252,1
4,145,145,1
5,444,444,1
6,318,318,1
7,607,607,1
8,224,224,1
9,450,450,1
10,44,44,1
11,271,271,1
12,277,277,1
13,241,241,1
14,783,783,1
15,648,648,1
16,259,259,1
17,755,755,1
18,655,655,1
19,53,53,1
20,444,444,1
21,592,592,1
22,675,675,1
23,902,902,1
24,605,605,1
25,374,374,1
26,985,985,1
27,179,179,1
28,849,849,1
29,416,416,1
30,993,993,1
31,111,111,1
32,178,178,1
33,556,556,1
34,275,275,1
35,652,652,1
36,754,754,1
37,715,715,1
38,243,243,1
39,436,436,1
40,90,90,1
41,372,372,1
42,190,190,1
43,998,998,1
44,209,209,1
45,320,320,1
46,362,362,1
47,97,97,1
48,224,224,1
49,397,397,1
50,667,667,1
51,767,767,1
52,183,183,1
53,248,248,1
54,274,274,1
55,447,447,1
56,46,46,1
57,907,907,1
58,589,589,1
59,151,151,1
60,410,410,1
61,243,243,1
62,550,550,1
63,99,99,1
64,655,655,1
65,582,582,1
66,160,160,1
67,911,911,1
68,863,863,1
69,147,147,1
70,271,271,1
71,421,421,1
72,338,338,1
73,72,72,1
74,956,956,1
75,908,908,1
76,572,572,1
77,270,270,1
78,522,522,1
79,778,778,1
80,969,969,1
81,32,32,1
82,154,154,1
83,170,170,1
84,264,264,1
85,380,380,1
86,919,919,1
87,227,227,1
88,887,887,1
89,522,522,1
90,859,859,1
91,952,952,1
92,978,978,1
93,67,67,1
94,562,562,1
95,728,728,1
96,487,487,1
97,353,353,1
98,211,211,1
99,722,722,1
100,131,131,1
101,637,637,1
102,127,127,1
103,969,969,1
104,980,980,1
105,758,758,1
106,346,346,1
107,691,691,1
108,120,120,1
109,101,101,1
110,716,716,1
111,350,350,1
112,325,325,1
113,100,100,1
114,840,840,1
115,207,207,1
116,212,212,1
117,281,281,1
118,914,914,1
119,668,668,1
120,680,680,1
121,236,236,1
122,158,158,1
123,835,835,1
124,76,76,1
125,229,229,1
126,946,946,1
127,175,175,1
128,476,476,1
129,161,161,1
130,664,664,1
131,57,57,1
132,562,562,1
133,934,934,1
134,867,867,1
135,96,96,1
136,454,454,1
137,816,816,1
138,433,433,1
139,646,646,1
140,631,631,1
141,2,2,1
142,871,871,1
143,568,568,1
144,700,700,1
145,276,276,1
146,391,391,1
147,22,22,1
148,642,642,1
149,790,790,1
150,374,374,1
151,531,531,1
152,446,446,1
153,246,246,1
154,335,335,1
155,618,618,1
156,805,805,1
157,768,768,1
158,352,352,1
159,890,890,1
160,454,454,1
161,112,112,1
162,582,582,1
163,440,440,1
164,770,770,1
165,598,598,1
166,137,137,1
167,499,499,1
168,536,536,1
169,270,270,1
170,217,217,1
171,196,196,1
172,174,174,1
173,915,915,1
174,106,106,1
175,866,866,1
176,595,595,1
177,475,475,1
178,691,691,1
179,253,253,1
180,690,690,1
181,449,449,1
182,7,7,1
183,173,173,1
184,792,792,1
185,677,677,1
186,780,780,1
187,333,333,1
188,854,854,1
189,462,462,1
190,248,248,1
191,408,408,1
192,402,402,1
193,581,581,1
194,59,59,1
195,273,273,1
196,227,227,1
197,648,648,1
198,931,931,1
199,388,388,1
200,799,799,1
201,757,757,1
202,865,865,1
203,163,163,1
204,586,586,1
205,89,89,1
206,250,250,1
207,823,823,1
208,202,202,1
209,983,983,1
210,811,811,1
211,142,142,1
212,525,525,1
213,143,143,1
214,279,279,1
215,378,378,1
216,65,65,1
217,893,893,1
218,722,722,1
219,663,663,1
220,479,479,1
221,731,731,1
222,112,112,1
223,998,998,1
224,69,69,1
225,526,526,1
226,642,642,1
227,850,850,1
228,110,110,1
229,208,208,1
230,651,651,1
231,215,215,1
232,993,993,1
233,55,55,1
234,790,790,1
235,597,597,1
236,841,841,1
237,60,60,1
238,225,225,1
239,332,332,1
240,290,290,1
241,485,485,1
242,320,320,1
243,110,110,1
244,77,77,1
245,466,466,1
246,1,1,1
247,514,514,1
248,87,87,1
249,62,62,1
250,384,384,1
251,358,358,1
252,877,877,1
253,908,908,1
254,141,141,1
255,670,670,1
256,627,627,1
257,872,872,1
258,230,230,1
259,72,72,1
260,913,913,1
261,898,898,1
262,287,287,1
263,485,485,1
264,547,547,1
265,200,200,1
266,744,744,1
267,257,257,1
268,207,207,1
269,90,90,1
270,156,156,1
271,677,677,1
272,473,473,1
273,517,517,1
274,505,505,1
275,859,859,1
276,812,812,1
277,394,394,1
278,987,987,1
279,659,659,1
280,624,624,1
281,502,502,1
282,533,533,1
283,150,150,1
284,563,563,1
285,992,992,1
286,338,338,1
287,816,816,1
288,18,18,1
289,54,54,1
290,766,766,1
291,980,980,1
292,417,417,1
293,418,418,1
294,99,99,1
295,616,616,1
296,261,261,1
297,68,68,1
298,391,391,1
299,374,374,1
300,174,174,1
301,238,238,1
302,735,735,1
303,589,589,1
304,159,159,1
305,257,257,1
306,822,822,1
307,309,309,1
308,826,826,1
309,55,55,1
310,157,157,1
311,630,630,1
312,947,947,1
313,755,755,1
314,685,685,1
315,939,939,1
316,257,257,1
317,696,696,1
318,818,818,1
319,689,689,1
320,657,657,1
321,901,901,1
322,728,728,1
323,160,160,1
324,628,628,1
325,157,157,1
326,221,221,1
327,439,439,1
328,358,358,1
329,358,358,1
330,993,993,1
331,878,878,1
332,86,86,1
333,847,847,1
334,91,91,1
335,12,12,1
336,622,622,1
337,500,500,1
338,631,631,1
339,788,788,1
340,38,38,1
341,590,590,1
342,864,864,1
343,806,806,1
344,984,984,1
345,632,632,1
346,28,28,1
347,987,987,1
348,549,549,1
349,763,763,1
350,998,998,1
351,933,933,1
352,241,241,1
353,1,1,1
354,606,606,1
355,824,824,1
356,106,106,1
357,598,598,1
358,707,707,1
359,870,870,1
360,457,457,1
361,192,192,1
362,948,948,1
363,613,613,1
364,729,729,1
365,668,668,1
366,867,867,1
367,841,841,1
368,441,441,1
369,580,580,1
370,950,950,1
371,249,249,1
372,714,714,1
373,297,297,1
374,603,603,1
375,492,492,1
376,968,968,1
377,982,982,1
378,830,830,1
379,32,32,1
380,106,106,1
381,490,490,1
382,549,549,1
383,246,246,1
384,666,666,1
385,839,839,1
386,515,515,1
387,186,186,1
388,798,798,1
389,4,4,1
390,435,435,1
391,652,652,1
392,515,515,1
393,727,727,1
394,366,366,1
395,841,841,1
396,935,935,1
397,772,772,1
398,775,775,1
399,491,491,1
400,835,835,1
401,847,847,1
402,938,938,1
403,686,686,1
404,808,808,1
405,499,499,1
406,540,540,1
407,548,548,1
408,948,948,1
409,63,63,1
410,250,250,1
411,340,340,1
412,95,95,1
413,608,608,1
414,4,4,1
415,917,917,1
416,749,749,1
417,641,641,1
418,842,842,1
419,275,275,1
420,656,656,1
421,407,407,1
422,61,61,1
423,810,810,1
424,476,476,1
425,838,838,1
426,644,644,1
427,74,74,1
428,13,13,1
429,685,685,1
430,644,644,1
431,615,615,1
432,835,835,1
433,357,357,1
434,175,175,1
435,1,1,1
436,63,63,1
437,626,626,1
438,135,135,1
439,53,53,1
440,480,480,1
441,502,502,1
442,669,669,1
443,279,279,1
444,873,873,1
445,665,665,1
446,99,99,1
447,522,522,1
448,684,684,1
449,536,536,1
450,39,39,1
451,621,621,1
452,295,295,1
453,960,960,1
454,717,717,1
455,981,981,1
456,33,33,1
457,547,547,1
458,664,664,1
459,455,455,1
460,132,132,1
461,732,732,1
462,193,193,1
463,132,132,1
464,222,222,1
465,765,765,1
466,555,555,1
467,317,317,1
468,767,767,1
469,901,901,1
470,227,227,1
471,748,748,1
472,43,43,1
473,647,647,1
474,522,522,1
475,802,802,1
476,738,738,1
477,657,657,1
478,494,494,1
479,299,299,1
480,650,650,1
481,613,613,1
482,666,666,1
483,235,235,1
484,892,892,1
485,18,18,1
486,445,445,1
487,734,734,1
488,511,511,1
489,384,384,1
490,512,512,1
491,41,41,1
492,584,584,1
493,641,641,1
494,991,991,1
495,430,430,1
496,581,581,1
497,93,93,1
498,777,777,1
499,849,849,1
500,478,478,1
501,876,876,1
502,208,208,1
503,106,106,1
504,470,470,1
505,414,414,1
506,254,254,1
507,119,119,1
508,443,443,1
509,41,41,1
510,351,351,1
511,10,10,1
512,939,939,1
513,259,259,1
514,875,875,1
515,618,618,1
516,22,22,1
517,854,854,1
518,212,212,1
519,922,922,1
520,566,566,1
521,74,74,1
522,59,59,1
523,248,248,1
524,241,241,1
525,333,333,1
526,377,377,1
527,148,148,1
528,20,20,1
529,580,580,1
530,740,740,1
531,220,220,1
532,125,125,1
533,378,378,1
534,875,875,1
535,638,638,1
536,797,797,1
537,231,231,1
538,573,573,1
539,815,815,1
540,850,850,1
541,829,829,1
542,738,738,1
543,404,404,1
544,373,373,1
545,329,329,1
546,729,729,1
547,845,845,1
548,157,157,1
549,235,235,1
550,189,189,1
551,297,297,1
552,433,433,1
553,893,893,1
554,747,747,1
555,110,110,1
556,556,556,1
557,59,59,1
558,372,372,1
559,583,583,1
560,918,918,1
561,843,843,1
562,685,685,1
563,72,72,1
564,444,444,1
565,870,870,1
566,702,702,1
567,782,782,1
568,67,67,1
569,449,449,1
570,281,281,1
571,840,840,1
572,786,786,1
573,921,921,1
574,169,169,1
575,551,551,1
576,33,33,1
577,36,36,1
578,661,661,1
579,420,420,1
580,996,996,1
581,127,127,1
582,198,198,1
583,919,919,1
584,430,430,1
585,368,368,1
586,829,829,1
587,146,146,1
588,593,593,1
589,211,211,1
590,372,372,1
591,679,679,1
592,935,935,1
593,934,934,1
594,253,253,1
595,554,554,1
596,509,509,1
597,599,599,1
598,483,483,1
599,616,616,1
600,905,905,1
601,590,590,1
602,768,768,1
603,274,274,1
604,653,653,1
605,331,331,1
606,60,60,1
607,103,103,1
608,65,65,1
609,697,697,1
610,658,658,1
611,132,132,1
612,363,363,1
613,632,632,1
614,393,393,1
615,342,342,1
616,480,480,1
617,232,232,1
618,470,470,1
619,955,955,1
620,997,997,1
621,460,460,1
622,786,786,1
623,472,472,1
624,720,720,1
625,61,61,1
626,126,126,1
627,119,119,1
628,946,946,1
629,480,480,1
630,909,909,1
631,39,39,1
632,588,588,1
633,902,902,1
634,710,710,1
635,948,948,1
636,167,167,1
637,458,458,1
638,324,324,1
639,394,394,1
640,35,35,1
641,770,770,1
642,590,590,1
643,507,507,1
644,909,909,1
645,673,673,1
646,631,631,1
647,686,686,1
648,890,890,1
649,666,666,1
650,307,307,1
651,20,20,1
652,344,344,1
653,311,311,1
654,134,134,1
655,606,606,1
656,451,451,1
657,962,962,1
658,790,790,1
659,953,953,1
660,377,377,1
661,153,153,1
662,770,770,1
663,548,548,1
664,160,160,1
665,611,611,1
666,120,120,1
667,504,504,1
668,996,996,1
669,1000,1000,1
670,227,227,1
671,422,422,1
672,505,505,1
673,190,190,1
674,513,513,1
675,508,508,1
676,32,32,1
677,66,66,1
678,517,517,1
679,212,212,1
680,947,947,1
681,666,666,1
682,816,816,1
683,914,914,1
684,243,243,1
685,331,331,1
686,514,514,1
687,638,638,1
688,380,380,1
689,157,157,1
690,10,10,1
691,545,545,1
692,85,85,1
693,94,94,1
694,510,510,1
695,130,130,1
696,96,96,1
697,581,581,1
698,976,976,1
699,161,161,1
700,58,58,1
701,543,543,1
702,164,164,1
703,600,600,1
704,713,713,1
705,335,335,1
706,178,178,1
707,850,850,1
708,291,291,1
709,692,692,1
710,507,507,1
711,487,487,1
712,69,69,1
713,742,742,1
714,53,53,1
715,84,84,1
716,501,501,1
717,52,52,1
718,488,488,1
719,498,498,1
720,575,575,1
721,125,125,1
722,500,500,1
723,754,754,1
724,156,156,1
725,370,370,1
726,563,563,1
727,63,63,1
728,996,996,1
729,470,470,1
730,990,990,1
731,81,81,1
732,715,715,1
733,300,300,1
734,512,512,1
735,851,851,1
736,935,935,1
737,268,268,1
738,500,500,1
739,193,193,1
740,77,77,1
741,961,961,1
742,921,921,1
743,614,614,1
744,284,284,1
745,670,670,1
746,621,621,1
747,698,698,1
748,748,748,1
749,216,216,1
750,450,450,1
751,576,576,1
752,617,617,1
753,436,436,1
754,803,803,1
755,238,238,1
756,553,553,1
757,158,158,1
758,372,372,1
759,772,772,1
760,768,768,1
761,563,563,1
762,149,149,1
763,548,548,1
764,196,196,1
765,352,352,1
766,731,731,1
767,355,355,1
768,413,413,1
769,137,137,1
770,589,589,1
771,466,466,1
772,616,616,1
773,180,180,1
774,417,417,1
775,606,606,1
776,413,413,1
777,569,569,1
778,441,441,1
779,914,914,1
780,270,270,1
781,683,683,1
782,344,344,1
783,918,918,1
784,650,650,1
785,605,605,1
786,67,67,1
787,276,276,1
788,311,311,1
789,332,332,1
790,622,622,1
791,550,550,1
792,405,405,1
793,987,987,1
794,565,565,1
795,693,693,1
796,960,960,1
797,812,812,1
798,603,603,1
799,137,137,1
800,19,19,1
801,907,907,1
802,72,72,1
803,708,708,1
804,976,976,1
805,534,534,1
806,865,865,1
807,740,740,1
808,11,11,1
809,375,375,1
810,491,491,1
811,782,782,1
812,113,113,1
813,6,6,1
814,313,313,1
815,283,283,1
816,603,603,1
817,335,335,1
818,818,818,1
819,9,9,1
820,448,448,1
821,191,191,1
822,392,392,1
823,342,342,1
824,731,731,1
825,34,34,1
826,264,264,1
827,529,529,1
828,234,234,1
829,329,329,1
830,675,675,1
831,471,471,1
832,81,81,1
833,783,783,1
834,312,312,1
835,336,336,1
836,102,102,1
837,499,499,1
838,826,826,1
839,237,237,1
840,28,28,1
841,141,141,1
842,430,430,1
843,613,613,1
844,994,994,1
845,963,963,1
846,897,897,1
847,513,513,1
848,787,787,1
849,250,250,1
850,526,526,1
851,790,790,1
852,302,302,1
853,349,349,1
854,920,920,1
855,529,529,1
856,32,32,1
857,881,881,1
858,532,532,1
859,649,649,1
860,203,203,1
861,925,925,1
862,374,374,1
863,189,189,1
864,708,708,1
865,837,837,1
866,626,626,1
867,939,939,1
868,288,288,1
869,772,772,1
870,932,932,1
871,557,557,1
872,298,298,1
873,419,419,1
874,133,133,1
875,300,300,1
876,87,87,1
877,466,466,1
878,445,445,1
879,341,341,1
880,641,641,1
881,328,328,1
882,462,462,1
883,391,391,1
884,328,328,1
885,74,74,1
886,369,369,1
887,461,461,1
888,73,73,1
889,453,453,1
890,83,83,1
891,362,362,1
892,550,550,1
893,143,143,1
894,963,963,1
895,657,657,1
896,463,463,1
897,153,153,1
898,681,681,1
899,296,296,1
900,447,447,1
901,358,358,1
902,573,573,1
903,116,116,1
904,839,839,1
905,333,333,1
906,232,232,1
907,236,236,1
908,531,531,1
909,719,719,1
910,612,612,1
911,24,24,1
912,730,730,1
913,302,302,1
914,967,967,1
915,411,411,1
916,554,554,1
917,714,714,1
918,919,919,1
919,498,498,1
920,644,644,1
921,777,777,1
922,776,776,1
923,397,397,1
924,939,939,1
925,345,345,1
926,554,554,1
927,385,385,1
928,446,446,1
929,120,120,1
930,454,454,1
931,884,884,1
932,353,353,1
933,871,871,1
934,802,802,1
935,998,998,1
936,654,654,1
937,931,931,1
938,39,39,1
939,359,359,1
940,271,271,1
941,949,949,1
942,287,287,1
943,238,238,1
944,541,541,1
945,108,108,1
946,646,646,1
947,225,225,1
948,47,47,1
949,745,745,1
950,170,170,1
951,421,421,1
952,216,216,1
953,547,547,1
954,728,728,1
955,483,483,1
956,756,756,1
957,118,118,1
958,498,498,1
959,576,576,1
960,714,714,1
961,378,378,1
962,136,136,1
963,52,52,1
964,283,283,1
965,831,831,1
966,362,362,1
967,304,304,1
968,686,686,1
969,544,544,1
970,240,240,1
971,710,710,1
972,616,616,1
973,77,77,1
974,675,675,1
975,369,369,1
976,977,977,1
977,372,372,1
978,329,329,1
979,114,114,1
980,229,229,1
981,7,7,1
982,249,249,1
983,259,259,1
984,129,129,1
985,374,374,1
986,618,618,1
987,928,928,1
988,130,130,1
989,834,834,1
990,521,521,1
991,999,999,1
992,305,305,1
993,158,158,1
994,256,256,1
995,605,605,1
996,713,713,1
997,765,765,1
998,38,38,1
999,934,934,1
1000,675,675,1
